File: D:\ML4VRP2024\Instances\CVRP\json\X-n120-k6.json exists.
Route #1: 20 107 96 71 54 112 62 87 72 102 111 40 6 92 35 1 24 37 56 11 27 
Route #2: 88 80 16 12 2 49 43 76 113 13 99 17 103 18 75 46 66 108 117 26 5 
Route #3: 116 61 70 45 3 78 8 114 90 53 81 69 68 60 95 4 22 59 100 77 57 
Route #4: 52 31 73 25 67 30 118 33 23 14 58 115 36 48 65 86 74 110 106 7 34 
Route #5: 50 38 29 32 91 21 79 15 83 28 19 44 9 97 
Route #6: 10 94 119 84 93 55 39 42 109 82 64 98 41 85 89 51 63 104 105 101 47 
